c Standarized MaxSat Instance
c{
c "sha1sum": "c6486a1e07a70d8d8e052a156341197c7c3ff5d0",
c "nvars": 40,
c "ncls": 1192,
c "nhards": 0,
c "nhard_len_stats":
c    { "min": 0, "max": 0, "ave": 0.00,
c      "stddev": 0.00 },
c "nsofts": 1192,
c "nsoft_len_stats":
c    { "min": 2, "max": 2, "ave": 2.00,
c      "stddev": 0.00 },
c "nsoft_wts": 10,
c "soft_wt_stats":
c    { "min": 1, "max": 10, "ave": 5.68,
c      "stddev": 2.81 }
c}
c------------------------------------------------------------
c FILE:  brock400_1.b
c
c Graph Generator
c
c By: Mark Brockington (brock@cs.ualberta.ca)
c and Joe Culberson (joe@cs.ualberta.ca)
c
c Graph Size:400, Clique Size: 27
c Seed:0, Edge Density:  0.75000
c Depth 1 Hiding
c
c Clique Elements are:
c 133 17 92 177 38 19 233 387 84 134 
c 303 251 206 347 220 107 89 310 275 185 
c 91 259 67 141 379 261 149 
c
c Estimated Size of Uncompressed File:   0.6MB
c
p wcnf 40 1192 6769
9 1 3 0
9 -1 -3 0
4 1 4 0
4 -1 -4 0
8 1 5 0
8 -1 -5 0
8 1 6 0
8 -1 -6 0
10 1 7 0
10 -1 -7 0
2 1 8 0
2 -1 -8 0
4 1 9 0
4 -1 -9 0
8 1 10 0
8 -1 -10 0
3 1 11 0
3 -1 -11 0
6 1 12 0
6 -1 -12 0
5 1 13 0
5 -1 -13 0
7 1 14 0
7 -1 -14 0
4 1 15 0
4 -1 -15 0
6 1 18 0
6 -1 -18 0
10 1 19 0
10 -1 -19 0
10 1 20 0
10 -1 -20 0
7 1 21 0
7 -1 -21 0
8 1 22 0
8 -1 -22 0
2 1 23 0
2 -1 -23 0
7 1 24 0
7 -1 -24 0
1 1 26 0
1 -1 -26 0
3 1 27 0
3 -1 -27 0
2 1 28 0
2 -1 -28 0
9 1 29 0
9 -1 -29 0
2 1 30 0
2 -1 -30 0
5 1 32 0
5 -1 -32 0
2 1 33 0
2 -1 -33 0
2 1 34 0
2 -1 -34 0
10 1 35 0
10 -1 -35 0
3 1 36 0
3 -1 -36 0
6 1 37 0
6 -1 -37 0
9 1 38 0
9 -1 -38 0
7 1 40 0
7 -1 -40 0
3 2 3 0
3 -2 -3 0
7 2 4 0
7 -2 -4 0
6 2 7 0
6 -2 -7 0
5 2 8 0
5 -2 -8 0
10 2 9 0
10 -2 -9 0
3 2 10 0
3 -2 -10 0
8 2 11 0
8 -2 -11 0
6 2 12 0
6 -2 -12 0
8 2 14 0
8 -2 -14 0
5 2 15 0
5 -2 -15 0
9 2 16 0
9 -2 -16 0
3 2 17 0
3 -2 -17 0
4 2 18 0
4 -2 -18 0
9 2 19 0
9 -2 -19 0
10 2 20 0
10 -2 -20 0
1 2 21 0
1 -2 -21 0
10 2 22 0
10 -2 -22 0
6 2 23 0
6 -2 -23 0
1 2 24 0
1 -2 -24 0
2 2 25 0
2 -2 -25 0
7 2 26 0
7 -2 -26 0
9 2 28 0
9 -2 -28 0
4 2 29 0
4 -2 -29 0
1 2 30 0
1 -2 -30 0
1 2 33 0
1 -2 -33 0
5 2 35 0
5 -2 -35 0
1 2 36 0
1 -2 -36 0
3 2 37 0
3 -2 -37 0
10 2 38 0
10 -2 -38 0
10 2 39 0
10 -2 -39 0
9 2 40 0
9 -2 -40 0
3 3 5 0
3 -3 -5 0
6 3 6 0
6 -3 -6 0
4 3 7 0
4 -3 -7 0
8 3 8 0
8 -3 -8 0
6 3 9 0
6 -3 -9 0
7 3 10 0
7 -3 -10 0
6 3 11 0
6 -3 -11 0
1 3 12 0
1 -3 -12 0
5 3 14 0
5 -3 -14 0
10 3 16 0
10 -3 -16 0
10 3 17 0
10 -3 -17 0
8 3 18 0
8 -3 -18 0
3 3 19 0
3 -3 -19 0
8 3 20 0
8 -3 -20 0
7 3 21 0
7 -3 -21 0
4 3 22 0
4 -3 -22 0
7 3 25 0
7 -3 -25 0
2 3 26 0
2 -3 -26 0
5 3 27 0
5 -3 -27 0
9 3 28 0
9 -3 -28 0
9 3 30 0
9 -3 -30 0
4 3 31 0
4 -3 -31 0
3 3 33 0
3 -3 -33 0
9 3 34 0
9 -3 -34 0
4 3 35 0
4 -3 -35 0
7 3 36 0
7 -3 -36 0
10 3 37 0
10 -3 -37 0
6 3 38 0
6 -3 -38 0
7 3 40 0
7 -3 -40 0
9 4 5 0
9 -4 -5 0
5 4 6 0
5 -4 -6 0
10 4 8 0
10 -4 -8 0
4 4 9 0
4 -4 -9 0
9 4 11 0
9 -4 -11 0
7 4 13 0
7 -4 -13 0
10 4 14 0
10 -4 -14 0
5 4 15 0
5 -4 -15 0
3 4 17 0
3 -4 -17 0
10 4 18 0
10 -4 -18 0
10 4 19 0
10 -4 -19 0
2 4 21 0
2 -4 -21 0
9 4 22 0
9 -4 -22 0
7 4 23 0
7 -4 -23 0
5 4 24 0
5 -4 -24 0
7 4 25 0
7 -4 -25 0
3 4 27 0
3 -4 -27 0
8 4 28 0
8 -4 -28 0
4 4 29 0
4 -4 -29 0
5 4 30 0
5 -4 -30 0
3 4 31 0
3 -4 -31 0
2 4 32 0
2 -4 -32 0
3 4 33 0
3 -4 -33 0
6 4 34 0
6 -4 -34 0
5 4 35 0
5 -4 -35 0
2 4 36 0
2 -4 -36 0
10 4 37 0
10 -4 -37 0
2 4 39 0
2 -4 -39 0
2 5 6 0
2 -5 -6 0
5 5 7 0
5 -5 -7 0
8 5 8 0
8 -5 -8 0
10 5 9 0
10 -5 -9 0
10 5 10 0
10 -5 -10 0
7 5 11 0
7 -5 -11 0
4 5 12 0
4 -5 -12 0
8 5 13 0
8 -5 -13 0
4 5 14 0
4 -5 -14 0
3 5 15 0
3 -5 -15 0
3 5 16 0
3 -5 -16 0
6 5 18 0
6 -5 -18 0
3 5 19 0
3 -5 -19 0
2 5 21 0
2 -5 -21 0
8 5 23 0
8 -5 -23 0
2 5 24 0
2 -5 -24 0
8 5 25 0
8 -5 -25 0
2 5 26 0
2 -5 -26 0
8 5 27 0
8 -5 -27 0
1 5 29 0
1 -5 -29 0
10 5 30 0
10 -5 -30 0
1 5 32 0
1 -5 -32 0
6 5 34 0
6 -5 -34 0
2 5 36 0
2 -5 -36 0
3 5 37 0
3 -5 -37 0
8 5 38 0
8 -5 -38 0
8 5 40 0
8 -5 -40 0
7 6 7 0
7 -6 -7 0
10 6 8 0
10 -6 -8 0
7 6 9 0
7 -6 -9 0
8 6 10 0
8 -6 -10 0
1 6 11 0
1 -6 -11 0
2 6 12 0
2 -6 -12 0
6 6 13 0
6 -6 -13 0
1 6 14 0
1 -6 -14 0
1 6 15 0
1 -6 -15 0
3 6 17 0
3 -6 -17 0
5 6 18 0
5 -6 -18 0
9 6 20 0
9 -6 -20 0
6 6 21 0
6 -6 -21 0
8 6 22 0
8 -6 -22 0
1 6 24 0
1 -6 -24 0
2 6 26 0
2 -6 -26 0
10 6 27 0
10 -6 -27 0
3 6 28 0
3 -6 -28 0
9 6 29 0
9 -6 -29 0
2 6 30 0
2 -6 -30 0
10 6 31 0
10 -6 -31 0
1 6 32 0
1 -6 -32 0
9 6 33 0
9 -6 -33 0
1 6 34 0
1 -6 -34 0
1 6 35 0
1 -6 -35 0
10 6 36 0
10 -6 -36 0
6 6 39 0
6 -6 -39 0
2 6 40 0
2 -6 -40 0
2 7 8 0
2 -7 -8 0
4 7 10 0
4 -7 -10 0
10 7 11 0
10 -7 -11 0
9 7 13 0
9 -7 -13 0
4 7 14 0
4 -7 -14 0
6 7 16 0
6 -7 -16 0
6 7 17 0
6 -7 -17 0
5 7 19 0
5 -7 -19 0
7 7 20 0
7 -7 -20 0
1 7 21 0
1 -7 -21 0
6 7 22 0
6 -7 -22 0
8 7 23 0
8 -7 -23 0
4 7 24 0
4 -7 -24 0
10 7 25 0
10 -7 -25 0
6 7 28 0
6 -7 -28 0
9 7 29 0
9 -7 -29 0
8 7 30 0
8 -7 -30 0
7 7 32 0
7 -7 -32 0
1 7 33 0
1 -7 -33 0
8 7 35 0
8 -7 -35 0
9 7 36 0
9 -7 -36 0
10 7 38 0
10 -7 -38 0
9 7 40 0
9 -7 -40 0
9 8 9 0
9 -8 -9 0
10 8 10 0
10 -8 -10 0
8 8 11 0
8 -8 -11 0
10 8 12 0
10 -8 -12 0
10 8 13 0
10 -8 -13 0
7 8 14 0
7 -8 -14 0
5 8 16 0
5 -8 -16 0
2 8 19 0
2 -8 -19 0
9 8 20 0
9 -8 -20 0
9 8 21 0
9 -8 -21 0
1 8 22 0
1 -8 -22 0
7 8 24 0
7 -8 -24 0
3 8 25 0
3 -8 -25 0
7 8 27 0
7 -8 -27 0
3 8 28 0
3 -8 -28 0
8 8 29 0
8 -8 -29 0
4 8 32 0
4 -8 -32 0
4 8 33 0
4 -8 -33 0
3 8 34 0
3 -8 -34 0
1 8 36 0
1 -8 -36 0
7 8 37 0
7 -8 -37 0
3 9 12 0
3 -9 -12 0
7 9 13 0
7 -9 -13 0
6 9 14 0
6 -9 -14 0
10 9 15 0
10 -9 -15 0
3 9 16 0
3 -9 -16 0
6 9 19 0
6 -9 -19 0
8 9 20 0
8 -9 -20 0
2 9 22 0
2 -9 -22 0
5 9 23 0
5 -9 -23 0
6 9 24 0
6 -9 -24 0
10 9 26 0
10 -9 -26 0
5 9 27 0
5 -9 -27 0
4 9 28 0
4 -9 -28 0
9 9 29 0
9 -9 -29 0
5 9 30 0
5 -9 -30 0
1 9 31 0
1 -9 -31 0
4 9 32 0
4 -9 -32 0
6 9 33 0
6 -9 -33 0
9 9 34 0
9 -9 -34 0
3 9 35 0
3 -9 -35 0
7 9 36 0
7 -9 -36 0
5 9 37 0
5 -9 -37 0
5 9 39 0
5 -9 -39 0
4 9 40 0
4 -9 -40 0
8 10 11 0
8 -10 -11 0
2 10 12 0
2 -10 -12 0
7 10 13 0
7 -10 -13 0
1 10 14 0
1 -10 -14 0
5 10 15 0
5 -10 -15 0
7 10 16 0
7 -10 -16 0
7 10 17 0
7 -10 -17 0
7 10 18 0
7 -10 -18 0
4 10 20 0
4 -10 -20 0
2 10 21 0
2 -10 -21 0
7 10 22 0
7 -10 -22 0
7 10 23 0
7 -10 -23 0
8 10 24 0
8 -10 -24 0
4 10 25 0
4 -10 -25 0
8 10 26 0
8 -10 -26 0
3 10 27 0
3 -10 -27 0
10 10 30 0
10 -10 -30 0
7 10 32 0
7 -10 -32 0
7 10 35 0
7 -10 -35 0
3 10 36 0
3 -10 -36 0
6 10 37 0
6 -10 -37 0
1 10 38 0
1 -10 -38 0
3 10 39 0
3 -10 -39 0
9 10 40 0
9 -10 -40 0
7 11 13 0
7 -11 -13 0
1 11 14 0
1 -11 -14 0
2 11 15 0
2 -11 -15 0
4 11 16 0
4 -11 -16 0
6 11 17 0
6 -11 -17 0
6 11 19 0
6 -11 -19 0
7 11 20 0
7 -11 -20 0
3 11 21 0
3 -11 -21 0
8 11 22 0
8 -11 -22 0
3 11 23 0
3 -11 -23 0
4 11 24 0
4 -11 -24 0
2 11 27 0
2 -11 -27 0
10 11 28 0
10 -11 -28 0
1 11 29 0
1 -11 -29 0
9 11 30 0
9 -11 -30 0
4 11 31 0
4 -11 -31 0
2 11 34 0
2 -11 -34 0
5 11 35 0
5 -11 -35 0
10 11 36 0
10 -11 -36 0
10 11 37 0
10 -11 -37 0
8 11 38 0
8 -11 -38 0
7 11 39 0
7 -11 -39 0
2 11 40 0
2 -11 -40 0
7 12 13 0
7 -12 -13 0
4 12 15 0
4 -12 -15 0
8 12 16 0
8 -12 -16 0
10 12 18 0
10 -12 -18 0
10 12 19 0
10 -12 -19 0
9 12 20 0
9 -12 -20 0
3 12 22 0
3 -12 -22 0
8 12 23 0
8 -12 -23 0
6 12 25 0
6 -12 -25 0
3 12 28 0
3 -12 -28 0
10 12 29 0
10 -12 -29 0
10 12 30 0
10 -12 -30 0
9 12 33 0
9 -12 -33 0
5 12 36 0
5 -12 -36 0
6 12 37 0
6 -12 -37 0
2 12 38 0
2 -12 -38 0
3 12 40 0
3 -12 -40 0
9 13 14 0
9 -13 -14 0
5 13 16 0
5 -13 -16 0
5 13 17 0
5 -13 -17 0
9 13 19 0
9 -13 -19 0
5 13 20 0
5 -13 -20 0
3 13 21 0
3 -13 -21 0
2 13 27 0
2 -13 -27 0
7 13 28 0
7 -13 -28 0
8 13 29 0
8 -13 -29 0
2 13 30 0
2 -13 -30 0
7 13 31 0
7 -13 -31 0
5 13 32 0
5 -13 -32 0
9 13 33 0
9 -13 -33 0
8 13 34 0
8 -13 -34 0
2 13 35 0
2 -13 -35 0
3 13 36 0
3 -13 -36 0
5 13 37 0
5 -13 -37 0
2 13 39 0
2 -13 -39 0
2 14 15 0
2 -14 -15 0
4 14 16 0
4 -14 -16 0
4 14 17 0
4 -14 -17 0
10 14 20 0
10 -14 -20 0
10 14 21 0
10 -14 -21 0
7 14 22 0
7 -14 -22 0
9 14 23 0
9 -14 -23 0
9 14 24 0
9 -14 -24 0
5 14 25 0
5 -14 -25 0
4 14 26 0
4 -14 -26 0
4 14 27 0
4 -14 -27 0
7 14 29 0
7 -14 -29 0
7 14 30 0
7 -14 -30 0
3 14 31 0
3 -14 -31 0
2 14 32 0
2 -14 -32 0
1 14 33 0
1 -14 -33 0
2 14 34 0
2 -14 -34 0
7 14 35 0
7 -14 -35 0
4 14 36 0
4 -14 -36 0
3 14 37 0
3 -14 -37 0
4 14 39 0
4 -14 -39 0
1 14 40 0
1 -14 -40 0
5 15 17 0
5 -15 -17 0
10 15 18 0
10 -15 -18 0
6 15 19 0
6 -15 -19 0
3 15 20 0
3 -15 -20 0
7 15 23 0
7 -15 -23 0
8 15 24 0
8 -15 -24 0
5 15 25 0
5 -15 -25 0
2 15 27 0
2 -15 -27 0
9 15 28 0
9 -15 -28 0
7 15 29 0
7 -15 -29 0
6 15 30 0
6 -15 -30 0
3 15 31 0
3 -15 -31 0
6 15 32 0
6 -15 -32 0
5 15 33 0
5 -15 -33 0
9 15 34 0
9 -15 -34 0
4 15 35 0
4 -15 -35 0
3 15 37 0
3 -15 -37 0
4 15 38 0
4 -15 -38 0
8 15 39 0
8 -15 -39 0
7 15 40 0
7 -15 -40 0
10 16 17 0
10 -16 -17 0
4 16 18 0
4 -16 -18 0
9 16 19 0
9 -16 -19 0
2 16 20 0
2 -16 -20 0
5 16 21 0
5 -16 -21 0
1 16 22 0
1 -16 -22 0
8 16 24 0
8 -16 -24 0
8 16 27 0
8 -16 -27 0
3 16 28 0
3 -16 -28 0
2 16 29 0
2 -16 -29 0
9 16 30 0
9 -16 -30 0
8 16 32 0
8 -16 -32 0
1 16 33 0
1 -16 -33 0
5 16 34 0
5 -16 -34 0
10 16 35 0
10 -16 -35 0
8 16 36 0
8 -16 -36 0
3 16 38 0
3 -16 -38 0
5 16 39 0
5 -16 -39 0
9 16 40 0
9 -16 -40 0
1 17 18 0
1 -17 -18 0
1 17 19 0
1 -17 -19 0
4 17 20 0
4 -17 -20 0
4 17 21 0
4 -17 -21 0
7 17 22 0
7 -17 -22 0
9 17 23 0
9 -17 -23 0
2 17 25 0
2 -17 -25 0
1 17 26 0
1 -17 -26 0
1 17 27 0
1 -17 -27 0
5 17 28 0
5 -17 -28 0
8 17 29 0
8 -17 -29 0
7 17 30 0
7 -17 -30 0
5 17 31 0
5 -17 -31 0
2 17 33 0
2 -17 -33 0
6 17 34 0
6 -17 -34 0
6 17 36 0
6 -17 -36 0
6 17 37 0
6 -17 -37 0
6 17 38 0
6 -17 -38 0
4 17 39 0
4 -17 -39 0
4 17 40 0
4 -17 -40 0
9 18 19 0
9 -18 -19 0
5 18 20 0
5 -18 -20 0
2 18 21 0
2 -18 -21 0
7 18 22 0
7 -18 -22 0
6 18 24 0
6 -18 -24 0
7 18 26 0
7 -18 -26 0
6 18 27 0
6 -18 -27 0
3 18 28 0
3 -18 -28 0
9 18 29 0
9 -18 -29 0
1 18 30 0
1 -18 -30 0
1 18 32 0
1 -18 -32 0
10 18 33 0
10 -18 -33 0
2 18 35 0
2 -18 -35 0
5 18 36 0
5 -18 -36 0
3 18 38 0
3 -18 -38 0
9 19 21 0
9 -19 -21 0
3 19 22 0
3 -19 -22 0
4 19 23 0
4 -19 -23 0
9 19 24 0
9 -19 -24 0
4 19 25 0
4 -19 -25 0
9 19 27 0
9 -19 -27 0
7 19 28 0
7 -19 -28 0
1 19 30 0
1 -19 -30 0
3 19 31 0
3 -19 -31 0
8 19 33 0
8 -19 -33 0
7 19 34 0
7 -19 -34 0
9 19 35 0
9 -19 -35 0
4 19 36 0
4 -19 -36 0
3 19 38 0
3 -19 -38 0
2 19 39 0
2 -19 -39 0
7 19 40 0
7 -19 -40 0
2 20 21 0
2 -20 -21 0
7 20 24 0
7 -20 -24 0
8 20 27 0
8 -20 -27 0
8 20 28 0
8 -20 -28 0
3 20 29 0
3 -20 -29 0
5 20 31 0
5 -20 -31 0
4 20 32 0
4 -20 -32 0
5 20 33 0
5 -20 -33 0
3 20 34 0
3 -20 -34 0
4 20 36 0
4 -20 -36 0
6 20 37 0
6 -20 -37 0
2 20 38 0
2 -20 -38 0
6 20 39 0
6 -20 -39 0
1 20 40 0
1 -20 -40 0
4 21 22 0
4 -21 -22 0
4 21 23 0
4 -21 -23 0
4 21 24 0
4 -21 -24 0
8 21 25 0
8 -21 -25 0
3 21 27 0
3 -21 -27 0
7 21 28 0
7 -21 -28 0
6 21 29 0
6 -21 -29 0
10 21 30 0
10 -21 -30 0
7 21 31 0
7 -21 -31 0
9 21 32 0
9 -21 -32 0
7 21 33 0
7 -21 -33 0
4 21 34 0
4 -21 -34 0
7 21 35 0
7 -21 -35 0
1 21 36 0
1 -21 -36 0
6 21 37 0
6 -21 -37 0
9 21 38 0
9 -21 -38 0
7 21 39 0
7 -21 -39 0
7 21 40 0
7 -21 -40 0
6 22 23 0
6 -22 -23 0
5 22 24 0
5 -22 -24 0
4 22 25 0
4 -22 -25 0
8 22 26 0
8 -22 -26 0
9 22 27 0
9 -22 -27 0
7 22 29 0
7 -22 -29 0
2 22 30 0
2 -22 -30 0
1 22 31 0
1 -22 -31 0
1 22 32 0
1 -22 -32 0
7 22 33 0
7 -22 -33 0
2 22 34 0
2 -22 -34 0
7 22 38 0
7 -22 -38 0
8 22 39 0
8 -22 -39 0
6 22 40 0
6 -22 -40 0
1 23 24 0
1 -23 -24 0
1 23 25 0
1 -23 -25 0
4 23 26 0
4 -23 -26 0
3 23 27 0
3 -23 -27 0
7 23 28 0
7 -23 -28 0
9 23 30 0
9 -23 -30 0
2 23 31 0
2 -23 -31 0
4 23 32 0
4 -23 -32 0
7 23 33 0
7 -23 -33 0
9 23 34 0
9 -23 -34 0
7 23 35 0
7 -23 -35 0
4 23 36 0
4 -23 -36 0
9 23 37 0
9 -23 -37 0
2 23 39 0
2 -23 -39 0
2 23 40 0
2 -23 -40 0
6 24 25 0
6 -24 -25 0
9 24 26 0
9 -24 -26 0
7 24 27 0
7 -24 -27 0
10 24 28 0
10 -24 -28 0
2 24 29 0
2 -24 -29 0
4 24 30 0
4 -24 -30 0
8 24 31 0
8 -24 -31 0
9 24 32 0
9 -24 -32 0
6 24 33 0
6 -24 -33 0
8 24 34 0
8 -24 -34 0
10 24 35 0
10 -24 -35 0
3 24 37 0
3 -24 -37 0
10 24 39 0
10 -24 -39 0
6 24 40 0
6 -24 -40 0
10 25 26 0
10 -25 -26 0
5 25 27 0
5 -25 -27 0
6 25 29 0
6 -25 -29 0
10 25 30 0
10 -25 -30 0
8 25 31 0
8 -25 -31 0
9 25 32 0
9 -25 -32 0
6 25 33 0
6 -25 -33 0
7 25 35 0
7 -25 -35 0
10 25 37 0
10 -25 -37 0
10 25 39 0
10 -25 -39 0
4 26 29 0
4 -26 -29 0
9 26 30 0
9 -26 -30 0
6 26 31 0
6 -26 -31 0
7 26 33 0
7 -26 -33 0
8 26 34 0
8 -26 -34 0
8 26 36 0
8 -26 -36 0
8 26 38 0
8 -26 -38 0
3 26 39 0
3 -26 -39 0
7 27 29 0
7 -27 -29 0
5 27 30 0
5 -27 -30 0
2 27 32 0
2 -27 -32 0
8 27 33 0
8 -27 -33 0
9 27 34 0
9 -27 -34 0
9 27 36 0
9 -27 -36 0
7 27 37 0
7 -27 -37 0
5 27 39 0
5 -27 -39 0
7 27 40 0
7 -27 -40 0
6 28 30 0
6 -28 -30 0
7 28 31 0
7 -28 -31 0
6 28 34 0
6 -28 -34 0
2 28 35 0
2 -28 -35 0
6 28 36 0
6 -28 -36 0
1 28 39 0
1 -28 -39 0
8 28 40 0
8 -28 -40 0
6 29 30 0
6 -29 -30 0
9 29 32 0
9 -29 -32 0
6 29 34 0
6 -29 -34 0
2 29 35 0
2 -29 -35 0
5 29 37 0
5 -29 -37 0
6 29 38 0
6 -29 -38 0
1 29 40 0
1 -29 -40 0
9 30 31 0
9 -30 -31 0
4 30 34 0
4 -30 -34 0
7 30 35 0
7 -30 -35 0
5 30 36 0
5 -30 -36 0
2 30 37 0
2 -30 -37 0
5 30 38 0
5 -30 -38 0
3 30 39 0
3 -30 -39 0
5 30 40 0
5 -30 -40 0
1 31 33 0
1 -31 -33 0
8 31 34 0
8 -31 -34 0
6 31 35 0
6 -31 -35 0
9 31 36 0
9 -31 -36 0
6 31 37 0
6 -31 -37 0
5 31 39 0
5 -31 -39 0
5 32 35 0
5 -32 -35 0
10 32 37 0
10 -32 -37 0
1 32 38 0
1 -32 -38 0
1 32 39 0
1 -32 -39 0
7 32 40 0
7 -32 -40 0
6 33 34 0
6 -33 -34 0
3 33 35 0
3 -33 -35 0
3 33 36 0
3 -33 -36 0
7 33 38 0
7 -33 -38 0
10 33 40 0
10 -33 -40 0
8 34 35 0
8 -34 -35 0
5 34 36 0
5 -34 -36 0
5 34 37 0
5 -34 -37 0
9 34 38 0
9 -34 -38 0
10 34 39 0
10 -34 -39 0
10 34 40 0
10 -34 -40 0
9 35 36 0
9 -35 -36 0
8 35 37 0
8 -35 -37 0
4 35 38 0
4 -35 -38 0
6 35 39 0
6 -35 -39 0
3 35 40 0
3 -35 -40 0
5 36 39 0
5 -36 -39 0
10 36 40 0
10 -36 -40 0
5 37 38 0
5 -37 -38 0
9 37 39 0
9 -37 -39 0
10 37 40 0
10 -37 -40 0
2 38 39 0
2 -38 -39 0
5 39 40 0
5 -39 -40 0
